; benchmark generated from python API
(set-info :status unknown)
(declare-fun cell_1_2 () Int)
(declare-fun cell_1_4 () Int)
(declare-fun cell_2_5 () Int)
(declare-fun cell_2_9 () Int)
(declare-fun cell_3_1 () Int)
(declare-fun cell_3_9 () Int)
(declare-fun cell_4_4 () Int)
(declare-fun cell_4_8 () Int)
(declare-fun cell_5_3 () Int)
(declare-fun cell_5_7 () Int)
(declare-fun cell_6_3 () Int)
(declare-fun cell_6_6 () Int)
(declare-fun cell_7_2 () Int)
(declare-fun cell_8_7 () Int)
(declare-fun cell_9_5 () Int)
(declare-fun cell_1_1 () Int)
(declare-fun cell_2_1 () Int)
(declare-fun cell_4_1 () Int)
(declare-fun cell_5_1 () Int)
(declare-fun cell_6_1 () Int)
(declare-fun cell_7_1 () Int)
(declare-fun cell_8_1 () Int)
(declare-fun cell_9_1 () Int)
(declare-fun cell_2_2 () Int)
(declare-fun cell_3_2 () Int)
(declare-fun cell_4_2 () Int)
(declare-fun cell_5_2 () Int)
(declare-fun cell_6_2 () Int)
(declare-fun cell_8_2 () Int)
(declare-fun cell_9_2 () Int)
(declare-fun cell_1_3 () Int)
(declare-fun cell_2_3 () Int)
(declare-fun cell_3_3 () Int)
(declare-fun cell_4_3 () Int)
(declare-fun cell_7_3 () Int)
(declare-fun cell_8_3 () Int)
(declare-fun cell_9_3 () Int)
(declare-fun cell_2_4 () Int)
(declare-fun cell_3_4 () Int)
(declare-fun cell_5_4 () Int)
(declare-fun cell_6_4 () Int)
(declare-fun cell_7_4 () Int)
(declare-fun cell_8_4 () Int)
(declare-fun cell_9_4 () Int)
(declare-fun cell_1_5 () Int)
(declare-fun cell_3_5 () Int)
(declare-fun cell_4_5 () Int)
(declare-fun cell_5_5 () Int)
(declare-fun cell_6_5 () Int)
(declare-fun cell_7_5 () Int)
(declare-fun cell_8_5 () Int)
(declare-fun cell_1_6 () Int)
(declare-fun cell_2_6 () Int)
(declare-fun cell_3_6 () Int)
(declare-fun cell_4_6 () Int)
(declare-fun cell_5_6 () Int)
(declare-fun cell_7_6 () Int)
(declare-fun cell_8_6 () Int)
(declare-fun cell_9_6 () Int)
(declare-fun cell_1_7 () Int)
(declare-fun cell_2_7 () Int)
(declare-fun cell_3_7 () Int)
(declare-fun cell_4_7 () Int)
(declare-fun cell_6_7 () Int)
(declare-fun cell_7_7 () Int)
(declare-fun cell_9_7 () Int)
(declare-fun cell_1_8 () Int)
(declare-fun cell_2_8 () Int)
(declare-fun cell_3_8 () Int)
(declare-fun cell_5_8 () Int)
(declare-fun cell_6_8 () Int)
(declare-fun cell_7_8 () Int)
(declare-fun cell_8_8 () Int)
(declare-fun cell_9_8 () Int)
(declare-fun cell_1_9 () Int)
(declare-fun cell_4_9 () Int)
(declare-fun cell_5_9 () Int)
(declare-fun cell_6_9 () Int)
(declare-fun cell_7_9 () Int)
(declare-fun cell_8_9 () Int)
(declare-fun cell_9_9 () Int)
(assert
 (= cell_1_2 2))
(assert
 (= cell_1_4 1))
(assert
 (= cell_2_5 2))
(assert
 (= cell_2_9 1))
(assert
 (= cell_3_1 1))
(assert
 (= cell_3_9 2))
(assert
 (= cell_4_4 2))
(assert
 (= cell_4_8 1))
(assert
 (= cell_5_3 1))
(assert
 (= cell_5_7 2))
(assert
 (= cell_6_3 2))
(assert
 (= cell_6_6 1))
(assert
 (= cell_7_2 1))
(assert
 (= cell_8_7 1))
(assert
 (= cell_9_5 1))
(assert
 (let (($x5985 (= cell_1_1 9)))
 (let (($x6184 (= cell_1_1 8)))
 (let (($x9896 (= cell_1_1 7)))
 (let (($x927 (= cell_1_1 6)))
 (let (($x4895 (= cell_1_1 5)))
 (let (($x8067 (= cell_1_1 4)))
 (let (($x5657 (= cell_1_1 3)))
 (let (($x8003 (= cell_1_1 2)))
 (let (($x8882 (= cell_1_1 1)))
 (or $x8882 $x8003 $x5657 $x8067 $x4895 $x927 $x9896 $x6184 $x5985)))))))))))
(assert
 (let (($x8709 (= cell_2_1 9)))
 (let (($x3796 (= cell_2_1 8)))
 (let (($x10149 (= cell_2_1 7)))
 (let (($x8430 (= cell_2_1 6)))
 (let (($x2640 (= cell_2_1 5)))
 (let (($x9950 (= cell_2_1 4)))
 (let (($x1158 (= cell_2_1 3)))
 (let (($x8111 (= cell_2_1 2)))
 (let (($x3721 (= cell_2_1 1)))
 (or $x3721 $x8111 $x1158 $x9950 $x2640 $x8430 $x10149 $x3796 $x8709)))))))))))
(assert
 (let (($x2447 (= cell_3_1 1)))
 (or $x2447 (= cell_3_1 2) (= cell_3_1 3) (= cell_3_1 4) (= cell_3_1 5) (= cell_3_1 6) (= cell_3_1 7) (= cell_3_1 8) (= cell_3_1 9))))
(assert
 (let (($x1870 (= cell_4_1 9)))
 (let (($x455 (= cell_4_1 8)))
 (let (($x1620 (= cell_4_1 7)))
 (let (($x4198 (= cell_4_1 6)))
 (let (($x2064 (= cell_4_1 5)))
 (let (($x9339 (= cell_4_1 4)))
 (let (($x5833 (= cell_4_1 3)))
 (let (($x1805 (= cell_4_1 2)))
 (let (($x6464 (= cell_4_1 1)))
 (or $x6464 $x1805 $x5833 $x9339 $x2064 $x4198 $x1620 $x455 $x1870)))))))))))
(assert
 (let (($x2851 (= cell_5_1 9)))
 (let (($x7113 (= cell_5_1 8)))
 (let (($x1396 (= cell_5_1 7)))
 (let (($x7369 (= cell_5_1 6)))
 (let (($x4601 (= cell_5_1 5)))
 (let (($x3880 (= cell_5_1 4)))
 (let (($x6544 (= cell_5_1 3)))
 (let (($x295 (= cell_5_1 2)))
 (let (($x5668 (= cell_5_1 1)))
 (or $x5668 $x295 $x6544 $x3880 $x4601 $x7369 $x1396 $x7113 $x2851)))))))))))
(assert
 (let (($x9052 (= cell_6_1 9)))
 (let (($x6218 (= cell_6_1 8)))
 (let (($x6174 (= cell_6_1 7)))
 (let (($x5216 (= cell_6_1 6)))
 (let (($x780 (= cell_6_1 5)))
 (let (($x8169 (= cell_6_1 4)))
 (let (($x7368 (= cell_6_1 3)))
 (let (($x6619 (= cell_6_1 2)))
 (let (($x4649 (= cell_6_1 1)))
 (or $x4649 $x6619 $x7368 $x8169 $x780 $x5216 $x6174 $x6218 $x9052)))))))))))
(assert
 (let (($x7771 (= cell_7_1 9)))
 (let (($x8497 (= cell_7_1 8)))
 (let (($x5218 (= cell_7_1 7)))
 (let (($x145 (= cell_7_1 6)))
 (let (($x1204 (= cell_7_1 5)))
 (let (($x3364 (= cell_7_1 4)))
 (let (($x8466 (= cell_7_1 3)))
 (let (($x4958 (= cell_7_1 2)))
 (let (($x3573 (= cell_7_1 1)))
 (or $x3573 $x4958 $x8466 $x3364 $x1204 $x145 $x5218 $x8497 $x7771)))))))))))
(assert
 (let (($x4953 (= cell_8_1 9)))
 (let (($x7744 (= cell_8_1 8)))
 (let (($x6913 (= cell_8_1 7)))
 (let (($x6896 (= cell_8_1 6)))
 (let (($x5476 (= cell_8_1 5)))
 (let (($x4506 (= cell_8_1 4)))
 (let (($x6888 (= cell_8_1 3)))
 (let (($x6860 (= cell_8_1 2)))
 (let (($x87 (= cell_8_1 1)))
 (or $x87 $x6860 $x6888 $x4506 $x5476 $x6896 $x6913 $x7744 $x4953)))))))))))
(assert
 (let (($x134 (= cell_9_1 9)))
 (let (($x10067 (= cell_9_1 8)))
 (let (($x7446 (= cell_9_1 7)))
 (let (($x5429 (= cell_9_1 6)))
 (let (($x6061 (= cell_9_1 5)))
 (let (($x1672 (= cell_9_1 4)))
 (let (($x7738 (= cell_9_1 3)))
 (let (($x4927 (= cell_9_1 2)))
 (let (($x4408 (= cell_9_1 1)))
 (or $x4408 $x4927 $x7738 $x1672 $x6061 $x5429 $x7446 $x10067 $x134)))))))))))
(assert
 (let (($x2171 (= cell_1_2 2)))
 (or (= cell_1_2 1) $x2171 (= cell_1_2 3) (= cell_1_2 4) (= cell_1_2 5) (= cell_1_2 6) (= cell_1_2 7) (= cell_1_2 8) (= cell_1_2 9))))
(assert
 (let (($x9141 (= cell_2_2 9)))
 (let (($x606 (= cell_2_2 8)))
 (let (($x2031 (= cell_2_2 7)))
 (let (($x4774 (= cell_2_2 6)))
 (let (($x8897 (= cell_2_2 5)))
 (let (($x3209 (= cell_2_2 4)))
 (let (($x2852 (= cell_2_2 3)))
 (let (($x6078 (= cell_2_2 2)))
 (let (($x4856 (= cell_2_2 1)))
 (or $x4856 $x6078 $x2852 $x3209 $x8897 $x4774 $x2031 $x606 $x9141)))))))))))
(assert
 (let (($x4693 (= cell_3_2 9)))
 (let (($x1944 (= cell_3_2 8)))
 (let (($x2942 (= cell_3_2 7)))
 (let (($x5538 (= cell_3_2 6)))
 (let (($x1555 (= cell_3_2 5)))
 (let (($x9373 (= cell_3_2 4)))
 (let (($x8231 (= cell_3_2 3)))
 (let (($x6166 (= cell_3_2 2)))
 (let (($x9933 (= cell_3_2 1)))
 (or $x9933 $x6166 $x8231 $x9373 $x1555 $x5538 $x2942 $x1944 $x4693)))))))))))
(assert
 (let (($x2322 (= cell_4_2 9)))
 (let (($x8769 (= cell_4_2 8)))
 (let (($x6379 (= cell_4_2 7)))
 (let (($x7026 (= cell_4_2 6)))
 (let (($x9429 (= cell_4_2 5)))
 (let (($x4779 (= cell_4_2 4)))
 (let (($x8999 (= cell_4_2 3)))
 (let (($x8545 (= cell_4_2 2)))
 (let (($x3096 (= cell_4_2 1)))
 (or $x3096 $x8545 $x8999 $x4779 $x9429 $x7026 $x6379 $x8769 $x2322)))))))))))
(assert
 (let (($x6819 (= cell_5_2 9)))
 (let (($x3919 (= cell_5_2 8)))
 (let (($x2846 (= cell_5_2 7)))
 (let (($x9483 (= cell_5_2 6)))
 (let (($x2541 (= cell_5_2 5)))
 (let (($x4515 (= cell_5_2 4)))
 (let (($x6103 (= cell_5_2 3)))
 (let (($x1051 (= cell_5_2 2)))
 (let (($x14 (= cell_5_2 1)))
 (or $x14 $x1051 $x6103 $x4515 $x2541 $x9483 $x2846 $x3919 $x6819)))))))))))
(assert
 (let (($x325 (= cell_6_2 9)))
 (let (($x6615 (= cell_6_2 8)))
 (let (($x9393 (= cell_6_2 7)))
 (let (($x928 (= cell_6_2 6)))
 (let (($x3431 (= cell_6_2 5)))
 (let (($x4204 (= cell_6_2 4)))
 (let (($x9211 (= cell_6_2 3)))
 (let (($x3217 (= cell_6_2 2)))
 (let (($x7858 (= cell_6_2 1)))
 (or $x7858 $x3217 $x9211 $x4204 $x3431 $x928 $x9393 $x6615 $x325)))))))))))
(assert
 (let (($x2170 (= cell_7_2 1)))
 (or $x2170 (= cell_7_2 2) (= cell_7_2 3) (= cell_7_2 4) (= cell_7_2 5) (= cell_7_2 6) (= cell_7_2 7) (= cell_7_2 8) (= cell_7_2 9))))
(assert
 (let (($x751 (= cell_8_2 9)))
 (let (($x4827 (= cell_8_2 8)))
 (let (($x4309 (= cell_8_2 7)))
 (let (($x994 (= cell_8_2 6)))
 (let (($x6239 (= cell_8_2 5)))
 (let (($x7964 (= cell_8_2 4)))
 (let (($x734 (= cell_8_2 3)))
 (let (($x3234 (= cell_8_2 2)))
 (let (($x9998 (= cell_8_2 1)))
 (or $x9998 $x3234 $x734 $x7964 $x6239 $x994 $x4309 $x4827 $x751)))))))))))
(assert
 (let (($x6686 (= cell_9_2 9)))
 (let (($x5157 (= cell_9_2 8)))
 (let (($x5087 (= cell_9_2 7)))
 (let (($x8833 (= cell_9_2 6)))
 (let (($x9658 (= cell_9_2 5)))
 (let (($x3308 (= cell_9_2 4)))
 (let (($x3398 (= cell_9_2 3)))
 (let (($x8581 (= cell_9_2 2)))
 (let (($x1162 (= cell_9_2 1)))
 (or $x1162 $x8581 $x3398 $x3308 $x9658 $x8833 $x5087 $x5157 $x6686)))))))))))
(assert
 (let (($x10055 (= cell_1_3 9)))
 (let (($x3915 (= cell_1_3 8)))
 (let (($x9529 (= cell_1_3 7)))
 (let (($x9032 (= cell_1_3 6)))
 (let (($x4952 (= cell_1_3 5)))
 (let (($x1263 (= cell_1_3 4)))
 (let (($x7663 (= cell_1_3 3)))
 (let (($x261 (= cell_1_3 2)))
 (let (($x5229 (= cell_1_3 1)))
 (or $x5229 $x261 $x7663 $x1263 $x4952 $x9032 $x9529 $x3915 $x10055)))))))))))
(assert
 (let (($x6607 (= cell_2_3 9)))
 (let (($x5493 (= cell_2_3 8)))
 (let (($x3408 (= cell_2_3 7)))
 (let (($x9496 (= cell_2_3 6)))
 (let (($x513 (= cell_2_3 5)))
 (let (($x8551 (= cell_2_3 4)))
 (let (($x9014 (= cell_2_3 3)))
 (let (($x2981 (= cell_2_3 2)))
 (let (($x8505 (= cell_2_3 1)))
 (or $x8505 $x2981 $x9014 $x8551 $x513 $x9496 $x3408 $x5493 $x6607)))))))))))
(assert
 (let (($x8916 (= cell_3_3 9)))
 (let (($x1759 (= cell_3_3 8)))
 (let (($x8812 (= cell_3_3 7)))
 (let (($x4664 (= cell_3_3 6)))
 (let (($x8362 (= cell_3_3 5)))
 (let (($x380 (= cell_3_3 4)))
 (let (($x9013 (= cell_3_3 3)))
 (let (($x4894 (= cell_3_3 2)))
 (let (($x48 (= cell_3_3 1)))
 (or $x48 $x4894 $x9013 $x380 $x8362 $x4664 $x8812 $x1759 $x8916)))))))))))
(assert
 (let (($x8027 (= cell_4_3 9)))
 (let (($x6519 (= cell_4_3 8)))
 (let (($x1783 (= cell_4_3 7)))
 (let (($x2168 (= cell_4_3 6)))
 (let (($x4007 (= cell_4_3 5)))
 (let (($x8707 (= cell_4_3 4)))
 (let (($x7716 (= cell_4_3 3)))
 (let (($x10028 (= cell_4_3 2)))
 (let (($x1744 (= cell_4_3 1)))
 (or $x1744 $x10028 $x7716 $x8707 $x4007 $x2168 $x1783 $x6519 $x8027)))))))))))
(assert
 (let (($x4092 (= cell_5_3 1)))
 (or $x4092 (= cell_5_3 2) (= cell_5_3 3) (= cell_5_3 4) (= cell_5_3 5) (= cell_5_3 6) (= cell_5_3 7) (= cell_5_3 8) (= cell_5_3 9))))
(assert
 (let (($x5779 (= cell_6_3 2)))
 (or (= cell_6_3 1) $x5779 (= cell_6_3 3) (= cell_6_3 4) (= cell_6_3 5) (= cell_6_3 6) (= cell_6_3 7) (= cell_6_3 8) (= cell_6_3 9))))
(assert
 (let (($x8991 (= cell_7_3 2)))
 (let (($x3357 (= cell_7_3 1)))
 (or $x3357 $x8991 (= cell_7_3 3) (= cell_7_3 4) (= cell_7_3 5) (= cell_7_3 6) (= cell_7_3 7) (= cell_7_3 8) (= cell_7_3 9)))))
(assert
 (let (($x7335 (= cell_8_3 9)))
 (let (($x5433 (= cell_8_3 8)))
 (let (($x10004 (= cell_8_3 7)))
 (let (($x5952 (= cell_8_3 6)))
 (let (($x3215 (= cell_8_3 5)))
 (let (($x8420 (= cell_8_3 4)))
 (let (($x2784 (= cell_8_3 3)))
 (let (($x1789 (= cell_8_3 2)))
 (let (($x8825 (= cell_8_3 1)))
 (or $x8825 $x1789 $x2784 $x8420 $x3215 $x5952 $x10004 $x5433 $x7335)))))))))))
(assert
 (let (($x7053 (= cell_9_3 9)))
 (let (($x34 (= cell_9_3 8)))
 (let (($x4739 (= cell_9_3 7)))
 (let (($x5253 (= cell_9_3 6)))
 (let (($x7607 (= cell_9_3 5)))
 (let (($x5424 (= cell_9_3 4)))
 (let (($x2850 (= cell_9_3 3)))
 (let (($x3953 (= cell_9_3 2)))
 (let (($x3220 (= cell_9_3 1)))
 (or $x3220 $x3953 $x2850 $x5424 $x7607 $x5253 $x4739 $x34 $x7053)))))))))))
(assert
 (let (($x1573 (= cell_1_4 1)))
 (or $x1573 (= cell_1_4 2) (= cell_1_4 3) (= cell_1_4 4) (= cell_1_4 5) (= cell_1_4 6) (= cell_1_4 7) (= cell_1_4 8) (= cell_1_4 9))))
(assert
 (let (($x3918 (= cell_2_4 9)))
 (let (($x4874 (= cell_2_4 8)))
 (let (($x5439 (= cell_2_4 7)))
 (let (($x466 (= cell_2_4 6)))
 (let (($x3072 (= cell_2_4 5)))
 (let (($x2804 (= cell_2_4 4)))
 (let (($x7957 (= cell_2_4 3)))
 (let (($x3886 (= cell_2_4 2)))
 (let (($x9177 (= cell_2_4 1)))
 (or $x9177 $x3886 $x7957 $x2804 $x3072 $x466 $x5439 $x4874 $x3918)))))))))))
(assert
 (let (($x512 (= cell_3_4 9)))
 (let (($x2260 (= cell_3_4 8)))
 (let (($x9856 (= cell_3_4 7)))
 (let (($x4526 (= cell_3_4 6)))
 (let (($x10034 (= cell_3_4 5)))
 (let (($x10148 (= cell_3_4 4)))
 (let (($x1768 (= cell_3_4 3)))
 (let (($x121 (= cell_3_4 2)))
 (let (($x9769 (= cell_3_4 1)))
 (or $x9769 $x121 $x1768 $x10148 $x10034 $x4526 $x9856 $x2260 $x512)))))))))))
(assert
 (let (($x6470 (= cell_4_4 2)))
 (or (= cell_4_4 1) $x6470 (= cell_4_4 3) (= cell_4_4 4) (= cell_4_4 5) (= cell_4_4 6) (= cell_4_4 7) (= cell_4_4 8) (= cell_4_4 9))))
(assert
 (let (($x1352 (= cell_5_4 9)))
 (let (($x515 (= cell_5_4 8)))
 (let (($x6729 (= cell_5_4 7)))
 (let (($x4100 (= cell_5_4 6)))
 (let (($x5341 (= cell_5_4 5)))
 (let (($x9028 (= cell_5_4 4)))
 (let (($x2938 (= cell_5_4 3)))
 (let (($x5955 (= cell_5_4 2)))
 (let (($x2971 (= cell_5_4 1)))
 (or $x2971 $x5955 $x2938 $x9028 $x5341 $x4100 $x6729 $x515 $x1352)))))))))))
(assert
 (let (($x7286 (= cell_6_4 9)))
 (let (($x2442 (= cell_6_4 8)))
 (let (($x8688 (= cell_6_4 7)))
 (let (($x1296 (= cell_6_4 6)))
 (let (($x2967 (= cell_6_4 5)))
 (let (($x4296 (= cell_6_4 4)))
 (let (($x1400 (= cell_6_4 3)))
 (let (($x1230 (= cell_6_4 2)))
 (let (($x2280 (= cell_6_4 1)))
 (or $x2280 $x1230 $x1400 $x4296 $x2967 $x1296 $x8688 $x2442 $x7286)))))))))))
(assert
 (let (($x2828 (= cell_7_4 9)))
 (let (($x54 (= cell_7_4 8)))
 (let (($x621 (= cell_7_4 7)))
 (let (($x756 (= cell_7_4 6)))
 (let (($x2137 (= cell_7_4 5)))
 (let (($x8542 (= cell_7_4 4)))
 (let (($x6453 (= cell_7_4 3)))
 (let (($x1168 (= cell_7_4 2)))
 (let (($x2562 (= cell_7_4 1)))
 (or $x2562 $x1168 $x6453 $x8542 $x2137 $x756 $x621 $x54 $x2828)))))))))))
(assert
 (let (($x854 (= cell_8_4 9)))
 (let (($x3301 (= cell_8_4 8)))
 (let (($x3893 (= cell_8_4 7)))
 (let (($x5352 (= cell_8_4 6)))
 (let (($x4339 (= cell_8_4 5)))
 (let (($x7016 (= cell_8_4 4)))
 (let (($x3453 (= cell_8_4 3)))
 (let (($x4569 (= cell_8_4 2)))
 (let (($x3198 (= cell_8_4 1)))
 (or $x3198 $x4569 $x3453 $x7016 $x4339 $x5352 $x3893 $x3301 $x854)))))))))))
(assert
 (let (($x3889 (= cell_9_4 9)))
 (let (($x1709 (= cell_9_4 8)))
 (let (($x1418 (= cell_9_4 7)))
 (let (($x2573 (= cell_9_4 6)))
 (let (($x6812 (= cell_9_4 5)))
 (let (($x771 (= cell_9_4 4)))
 (let (($x6195 (= cell_9_4 3)))
 (let (($x9573 (= cell_9_4 2)))
 (let (($x9293 (= cell_9_4 1)))
 (or $x9293 $x9573 $x6195 $x771 $x6812 $x2573 $x1418 $x1709 $x3889)))))))))))
(assert
 (let (($x1837 (= cell_1_5 9)))
 (let (($x4964 (= cell_1_5 8)))
 (let (($x9919 (= cell_1_5 7)))
 (let (($x8998 (= cell_1_5 6)))
 (let (($x4155 (= cell_1_5 5)))
 (let (($x702 (= cell_1_5 4)))
 (let (($x3819 (= cell_1_5 3)))
 (let (($x8796 (= cell_1_5 2)))
 (let (($x3982 (= cell_1_5 1)))
 (or $x3982 $x8796 $x3819 $x702 $x4155 $x8998 $x9919 $x4964 $x1837)))))))))))
(assert
 (let (($x3020 (= cell_2_5 2)))
 (or (= cell_2_5 1) $x3020 (= cell_2_5 3) (= cell_2_5 4) (= cell_2_5 5) (= cell_2_5 6) (= cell_2_5 7) (= cell_2_5 8) (= cell_2_5 9))))
(assert
 (let (($x7046 (= cell_3_5 9)))
 (let (($x4487 (= cell_3_5 8)))
 (let (($x1394 (= cell_3_5 7)))
 (let (($x3187 (= cell_3_5 6)))
 (let (($x6709 (= cell_3_5 5)))
 (let (($x9584 (= cell_3_5 4)))
 (let (($x634 (= cell_3_5 3)))
 (let (($x4385 (= cell_3_5 2)))
 (let (($x10045 (= cell_3_5 1)))
 (or $x10045 $x4385 $x634 $x9584 $x6709 $x3187 $x1394 $x4487 $x7046)))))))))))
(assert
 (let (($x782 (= cell_4_5 9)))
 (let (($x5742 (= cell_4_5 8)))
 (let (($x7083 (= cell_4_5 7)))
 (let (($x2414 (= cell_4_5 6)))
 (let (($x6000 (= cell_4_5 5)))
 (let (($x4416 (= cell_4_5 4)))
 (let (($x7071 (= cell_4_5 3)))
 (let (($x8971 (= cell_4_5 2)))
 (let (($x1587 (= cell_4_5 1)))
 (or $x1587 $x8971 $x7071 $x4416 $x6000 $x2414 $x7083 $x5742 $x782)))))))))))
(assert
 (let (($x424 (= cell_5_5 9)))
 (let (($x9102 (= cell_5_5 8)))
 (let (($x8831 (= cell_5_5 7)))
 (let (($x1443 (= cell_5_5 6)))
 (let (($x544 (= cell_5_5 5)))
 (let (($x10123 (= cell_5_5 4)))
 (let (($x5513 (= cell_5_5 3)))
 (let (($x5944 (= cell_5_5 2)))
 (let (($x3848 (= cell_5_5 1)))
 (or $x3848 $x5944 $x5513 $x10123 $x544 $x1443 $x8831 $x9102 $x424)))))))))))
(assert
 (let (($x956 (= cell_6_5 9)))
 (let (($x7055 (= cell_6_5 8)))
 (let (($x2443 (= cell_6_5 7)))
 (let (($x2132 (= cell_6_5 6)))
 (let (($x351 (= cell_6_5 5)))
 (let (($x3690 (= cell_6_5 4)))
 (let (($x6733 (= cell_6_5 3)))
 (let (($x7098 (= cell_6_5 2)))
 (let (($x7218 (= cell_6_5 1)))
 (or $x7218 $x7098 $x6733 $x3690 $x351 $x2132 $x2443 $x7055 $x956)))))))))))
(assert
 (let (($x3922 (= cell_7_5 9)))
 (let (($x10063 (= cell_7_5 8)))
 (let (($x6947 (= cell_7_5 7)))
 (let (($x8523 (= cell_7_5 6)))
 (let (($x7995 (= cell_7_5 5)))
 (let (($x4052 (= cell_7_5 4)))
 (let (($x7477 (= cell_7_5 3)))
 (let (($x3800 (= cell_7_5 2)))
 (let (($x8970 (= cell_7_5 1)))
 (or $x8970 $x3800 $x7477 $x4052 $x7995 $x8523 $x6947 $x10063 $x3922)))))))))))
(assert
 (let (($x1979 (= cell_8_5 9)))
 (let (($x7309 (= cell_8_5 8)))
 (let (($x9005 (= cell_8_5 7)))
 (let (($x5347 (= cell_8_5 6)))
 (let (($x7109 (= cell_8_5 5)))
 (let (($x2397 (= cell_8_5 4)))
 (let (($x8659 (= cell_8_5 3)))
 (let (($x3461 (= cell_8_5 2)))
 (let (($x6489 (= cell_8_5 1)))
 (or $x6489 $x3461 $x8659 $x2397 $x7109 $x5347 $x9005 $x7309 $x1979)))))))))))
(assert
 (let (($x9706 (= cell_9_5 1)))
 (or $x9706 (= cell_9_5 2) (= cell_9_5 3) (= cell_9_5 4) (= cell_9_5 5) (= cell_9_5 6) (= cell_9_5 7) (= cell_9_5 8) (= cell_9_5 9))))
(assert
 (let (($x9972 (= cell_1_6 9)))
 (let (($x9826 (= cell_1_6 8)))
 (let (($x8684 (= cell_1_6 7)))
 (let (($x4301 (= cell_1_6 6)))
 (let (($x8289 (= cell_1_6 5)))
 (let (($x4355 (= cell_1_6 4)))
 (let (($x4603 (= cell_1_6 3)))
 (let (($x9750 (= cell_1_6 2)))
 (let (($x6976 (= cell_1_6 1)))
 (or $x6976 $x9750 $x4603 $x4355 $x8289 $x4301 $x8684 $x9826 $x9972)))))))))))
(assert
 (let (($x9409 (= cell_2_6 9)))
 (let (($x7347 (= cell_2_6 8)))
 (let (($x1046 (= cell_2_6 7)))
 (let (($x3513 (= cell_2_6 6)))
 (let (($x4265 (= cell_2_6 5)))
 (let (($x6671 (= cell_2_6 4)))
 (let (($x6504 (= cell_2_6 3)))
 (let (($x8627 (= cell_2_6 2)))
 (let (($x3028 (= cell_2_6 1)))
 (or $x3028 $x8627 $x6504 $x6671 $x4265 $x3513 $x1046 $x7347 $x9409)))))))))))
(assert
 (let (($x2290 (= cell_3_6 9)))
 (let (($x8119 (= cell_3_6 8)))
 (let (($x5180 (= cell_3_6 7)))
 (let (($x4376 (= cell_3_6 6)))
 (let (($x4877 (= cell_3_6 5)))
 (let (($x4808 (= cell_3_6 4)))
 (let (($x1676 (= cell_3_6 3)))
 (let (($x2745 (= cell_3_6 2)))
 (let (($x9362 (= cell_3_6 1)))
 (or $x9362 $x2745 $x1676 $x4808 $x4877 $x4376 $x5180 $x8119 $x2290)))))))))))
(assert
 (let (($x915 (= cell_4_6 9)))
 (let (($x4420 (= cell_4_6 8)))
 (let (($x2239 (= cell_4_6 7)))
 (let (($x6473 (= cell_4_6 6)))
 (let (($x2095 (= cell_4_6 5)))
 (let (($x9754 (= cell_4_6 4)))
 (let (($x4926 (= cell_4_6 3)))
 (let (($x5005 (= cell_4_6 2)))
 (let (($x5640 (= cell_4_6 1)))
 (or $x5640 $x5005 $x4926 $x9754 $x2095 $x6473 $x2239 $x4420 $x915)))))))))))
(assert
 (let (($x1112 (= cell_5_6 9)))
 (let (($x5131 (= cell_5_6 8)))
 (let (($x3556 (= cell_5_6 7)))
 (let (($x7650 (= cell_5_6 6)))
 (let (($x1029 (= cell_5_6 5)))
 (let (($x3868 (= cell_5_6 4)))
 (let (($x266 (= cell_5_6 3)))
 (let (($x4250 (= cell_5_6 2)))
 (let (($x2504 (= cell_5_6 1)))
 (or $x2504 $x4250 $x266 $x3868 $x1029 $x7650 $x3556 $x5131 $x1112)))))))))))
(assert
 (let (($x6075 (= cell_6_6 1)))
 (or $x6075 (= cell_6_6 2) (= cell_6_6 3) (= cell_6_6 4) (= cell_6_6 5) (= cell_6_6 6) (= cell_6_6 7) (= cell_6_6 8) (= cell_6_6 9))))
(assert
 (let (($x5164 (= cell_7_6 9)))
 (let (($x9709 (= cell_7_6 8)))
 (let (($x6364 (= cell_7_6 7)))
 (let (($x8208 (= cell_7_6 6)))
 (let (($x1678 (= cell_7_6 5)))
 (let (($x258 (= cell_7_6 4)))
 (let (($x9497 (= cell_7_6 3)))
 (let (($x8142 (= cell_7_6 2)))
 (let (($x8511 (= cell_7_6 1)))
 (or $x8511 $x8142 $x9497 $x258 $x1678 $x8208 $x6364 $x9709 $x5164)))))))))))
(assert
 (let (($x9935 (= cell_8_6 9)))
 (let (($x7869 (= cell_8_6 8)))
 (let (($x7837 (= cell_8_6 7)))
 (let (($x7916 (= cell_8_6 6)))
 (let (($x8262 (= cell_8_6 5)))
 (let (($x1107 (= cell_8_6 4)))
 (let (($x9448 (= cell_8_6 3)))
 (let (($x4639 (= cell_8_6 2)))
 (let (($x9309 (= cell_8_6 1)))
 (or $x9309 $x4639 $x9448 $x1107 $x8262 $x7916 $x7837 $x7869 $x9935)))))))))))
(assert
 (let (($x3718 (= cell_9_6 1)))
 (or $x3718 (= cell_9_6 2) (= cell_9_6 3) (= cell_9_6 4) (= cell_9_6 5) (= cell_9_6 6) (= cell_9_6 7) (= cell_9_6 8) (= cell_9_6 9))))
(assert
 (let (($x1229 (= cell_1_7 9)))
 (let (($x9171 (= cell_1_7 8)))
 (let (($x3613 (= cell_1_7 7)))
 (let (($x7570 (= cell_1_7 6)))
 (let (($x1633 (= cell_1_7 5)))
 (let (($x3792 (= cell_1_7 4)))
 (let (($x7973 (= cell_1_7 3)))
 (let (($x1986 (= cell_1_7 2)))
 (let (($x9775 (= cell_1_7 1)))
 (or $x9775 $x1986 $x7973 $x3792 $x1633 $x7570 $x3613 $x9171 $x1229)))))))))))
(assert
 (let (($x4744 (= cell_2_7 9)))
 (let (($x4743 (= cell_2_7 8)))
 (let (($x5998 (= cell_2_7 7)))
 (let (($x4074 (= cell_2_7 6)))
 (let (($x2104 (= cell_2_7 5)))
 (let (($x6992 (= cell_2_7 4)))
 (let (($x9332 (= cell_2_7 3)))
 (let (($x7836 (= cell_2_7 2)))
 (let (($x5787 (= cell_2_7 1)))
 (or $x5787 $x7836 $x9332 $x6992 $x2104 $x4074 $x5998 $x4743 $x4744)))))))))))
(assert
 (let (($x4259 (= cell_3_7 9)))
 (let (($x7358 (= cell_3_7 8)))
 (let (($x7574 (= cell_3_7 7)))
 (let (($x5371 (= cell_3_7 6)))
 (let (($x9550 (= cell_3_7 5)))
 (let (($x1025 (= cell_3_7 4)))
 (let (($x6972 (= cell_3_7 3)))
 (let (($x4290 (= cell_3_7 2)))
 (let (($x2204 (= cell_3_7 1)))
 (or $x2204 $x4290 $x6972 $x1025 $x9550 $x5371 $x7574 $x7358 $x4259)))))))))))
(assert
 (let (($x6451 (= cell_4_7 9)))
 (let (($x7361 (= cell_4_7 8)))
 (let (($x9230 (= cell_4_7 7)))
 (let (($x3458 (= cell_4_7 6)))
 (let (($x787 (= cell_4_7 5)))
 (let (($x1812 (= cell_4_7 4)))
 (let (($x3117 (= cell_4_7 3)))
 (let (($x6654 (= cell_4_7 2)))
 (let (($x8450 (= cell_4_7 1)))
 (or $x8450 $x6654 $x3117 $x1812 $x787 $x3458 $x9230 $x7361 $x6451)))))))))))
(assert
 (let (($x6257 (= cell_5_7 2)))
 (or (= cell_5_7 1) $x6257 (= cell_5_7 3) (= cell_5_7 4) (= cell_5_7 5) (= cell_5_7 6) (= cell_5_7 7) (= cell_5_7 8) (= cell_5_7 9))))
(assert
 (let (($x8369 (= cell_6_7 9)))
 (let (($x4922 (= cell_6_7 8)))
 (let (($x7880 (= cell_6_7 7)))
 (let (($x8978 (= cell_6_7 6)))
 (let (($x3538 (= cell_6_7 5)))
 (let (($x7319 (= cell_6_7 4)))
 (let (($x5484 (= cell_6_7 3)))
 (let (($x4096 (= cell_6_7 2)))
 (let (($x5381 (= cell_6_7 1)))
 (or $x5381 $x4096 $x5484 $x7319 $x3538 $x8978 $x7880 $x4922 $x8369)))))))))))
(assert
 (let (($x4584 (= cell_7_7 9)))
 (let (($x15 (= cell_7_7 8)))
 (let (($x5027 (= cell_7_7 7)))
 (let (($x9860 (= cell_7_7 6)))
 (let (($x2068 (= cell_7_7 5)))
 (let (($x3282 (= cell_7_7 4)))
 (let (($x570 (= cell_7_7 3)))
 (let (($x10212 (= cell_7_7 2)))
 (let (($x410 (= cell_7_7 1)))
 (or $x410 $x10212 $x570 $x3282 $x2068 $x9860 $x5027 $x15 $x4584)))))))))))
(assert
 (let (($x2958 (= cell_8_7 1)))
 (or $x2958 (= cell_8_7 2) (= cell_8_7 3) (= cell_8_7 4) (= cell_8_7 5) (= cell_8_7 6) (= cell_8_7 7) (= cell_8_7 8) (= cell_8_7 9))))
(assert
 (let (($x8207 (= cell_9_7 2)))
 (let (($x9308 (= cell_9_7 1)))
 (or $x9308 $x8207 (= cell_9_7 3) (= cell_9_7 4) (= cell_9_7 5) (= cell_9_7 6) (= cell_9_7 7) (= cell_9_7 8) (= cell_9_7 9)))))
(assert
 (let (($x4708 (= cell_1_8 9)))
 (let (($x6105 (= cell_1_8 8)))
 (let (($x8616 (= cell_1_8 7)))
 (let (($x8636 (= cell_1_8 6)))
 (let (($x2966 (= cell_1_8 5)))
 (let (($x4896 (= cell_1_8 4)))
 (let (($x3813 (= cell_1_8 3)))
 (let (($x7482 (= cell_1_8 2)))
 (let (($x3057 (= cell_1_8 1)))
 (or $x3057 $x7482 $x3813 $x4896 $x2966 $x8636 $x8616 $x6105 $x4708)))))))))))
(assert
 (let (($x597 (= cell_2_8 9)))
 (let (($x1975 (= cell_2_8 8)))
 (let (($x6053 (= cell_2_8 7)))
 (let (($x421 (= cell_2_8 6)))
 (let (($x1344 (= cell_2_8 5)))
 (let (($x4705 (= cell_2_8 4)))
 (let (($x9037 (= cell_2_8 3)))
 (let (($x333 (= cell_2_8 2)))
 (let (($x1797 (= cell_2_8 1)))
 (or $x1797 $x333 $x9037 $x4705 $x1344 $x421 $x6053 $x1975 $x597)))))))))))
(assert
 (let (($x2561 (= cell_3_8 9)))
 (let (($x9912 (= cell_3_8 8)))
 (let (($x9736 (= cell_3_8 7)))
 (let (($x972 (= cell_3_8 6)))
 (let (($x2039 (= cell_3_8 5)))
 (let (($x4666 (= cell_3_8 4)))
 (let (($x6117 (= cell_3_8 3)))
 (let (($x6735 (= cell_3_8 2)))
 (let (($x2429 (= cell_3_8 1)))
 (or $x2429 $x6735 $x6117 $x4666 $x2039 $x972 $x9736 $x9912 $x2561)))))))))))
(assert
 (let (($x7267 (= cell_4_8 1)))
 (or $x7267 (= cell_4_8 2) (= cell_4_8 3) (= cell_4_8 4) (= cell_4_8 5) (= cell_4_8 6) (= cell_4_8 7) (= cell_4_8 8) (= cell_4_8 9))))
(assert
 (let (($x1611 (= cell_5_8 2)))
 (let (($x1174 (= cell_5_8 1)))
 (or $x1174 $x1611 (= cell_5_8 3) (= cell_5_8 4) (= cell_5_8 5) (= cell_5_8 6) (= cell_5_8 7) (= cell_5_8 8) (= cell_5_8 9)))))
(assert
 (let (($x3481 (= cell_6_8 2)))
 (let (($x2551 (= cell_6_8 1)))
 (or $x2551 $x3481 (= cell_6_8 3) (= cell_6_8 4) (= cell_6_8 5) (= cell_6_8 6) (= cell_6_8 7) (= cell_6_8 8) (= cell_6_8 9)))))
(assert
 (let (($x3788 (= cell_7_8 9)))
 (let (($x7582 (= cell_7_8 8)))
 (let (($x990 (= cell_7_8 7)))
 (let (($x2019 (= cell_7_8 6)))
 (let (($x1099 (= cell_7_8 5)))
 (let (($x1449 (= cell_7_8 4)))
 (let (($x3895 (= cell_7_8 3)))
 (let (($x395 (= cell_7_8 2)))
 (let (($x9755 (= cell_7_8 1)))
 (or $x9755 $x395 $x3895 $x1449 $x1099 $x2019 $x990 $x7582 $x3788)))))))))))
(assert
 (let (($x6344 (= cell_8_8 1)))
 (or $x6344 (= cell_8_8 2) (= cell_8_8 3) (= cell_8_8 4) (= cell_8_8 5) (= cell_8_8 6) (= cell_8_8 7) (= cell_8_8 8) (= cell_8_8 9))))
(assert
 (let (($x850 (= cell_9_8 1)))
 (or $x850 (= cell_9_8 2) (= cell_9_8 3) (= cell_9_8 4) (= cell_9_8 5) (= cell_9_8 6) (= cell_9_8 7) (= cell_9_8 8) (= cell_9_8 9))))
(assert
 (let (($x6844 (= cell_1_9 9)))
 (let (($x2589 (= cell_1_9 8)))
 (let (($x833 (= cell_1_9 7)))
 (let (($x3014 (= cell_1_9 6)))
 (let (($x3923 (= cell_1_9 5)))
 (let (($x9993 (= cell_1_9 4)))
 (let (($x7163 (= cell_1_9 3)))
 (let (($x5041 (= cell_1_9 2)))
 (let (($x552 (= cell_1_9 1)))
 (or $x552 $x5041 $x7163 $x9993 $x3923 $x3014 $x833 $x2589 $x6844)))))))))))
(assert
 (let (($x1427 (= cell_2_9 1)))
 (or $x1427 (= cell_2_9 2) (= cell_2_9 3) (= cell_2_9 4) (= cell_2_9 5) (= cell_2_9 6) (= cell_2_9 7) (= cell_2_9 8) (= cell_2_9 9))))
(assert
 (let (($x9817 (= cell_3_9 2)))
 (or (= cell_3_9 1) $x9817 (= cell_3_9 3) (= cell_3_9 4) (= cell_3_9 5) (= cell_3_9 6) (= cell_3_9 7) (= cell_3_9 8) (= cell_3_9 9))))
(assert
 (let (($x1395 (= cell_4_9 9)))
 (let (($x830 (= cell_4_9 8)))
 (let (($x10059 (= cell_4_9 7)))
 (let (($x7573 (= cell_4_9 6)))
 (let (($x733 (= cell_4_9 5)))
 (let (($x2988 (= cell_4_9 4)))
 (let (($x167 (= cell_4_9 3)))
 (let (($x8984 (= cell_4_9 2)))
 (let (($x2318 (= cell_4_9 1)))
 (or $x2318 $x8984 $x167 $x2988 $x733 $x7573 $x10059 $x830 $x1395)))))))))))
(assert
 (let (($x6210 (= cell_5_9 2)))
 (let (($x3462 (= cell_5_9 1)))
 (or $x3462 $x6210 (= cell_5_9 3) (= cell_5_9 4) (= cell_5_9 5) (= cell_5_9 6) (= cell_5_9 7) (= cell_5_9 8) (= cell_5_9 9)))))
(assert
 (let (($x5435 (= cell_6_9 2)))
 (let (($x3962 (= cell_6_9 1)))
 (or $x3962 $x5435 (= cell_6_9 3) (= cell_6_9 4) (= cell_6_9 5) (= cell_6_9 6) (= cell_6_9 7) (= cell_6_9 8) (= cell_6_9 9)))))
(assert
 (let (($x6306 (= cell_7_9 9)))
 (let (($x2296 (= cell_7_9 8)))
 (let (($x3436 (= cell_7_9 7)))
 (let (($x1313 (= cell_7_9 6)))
 (let (($x992 (= cell_7_9 5)))
 (let (($x1914 (= cell_7_9 4)))
 (let (($x293 (= cell_7_9 3)))
 (let (($x2980 (= cell_7_9 2)))
 (let (($x6404 (= cell_7_9 1)))
 (or $x6404 $x2980 $x293 $x1914 $x992 $x1313 $x3436 $x2296 $x6306)))))))))))
(assert
 (let (($x304 (= cell_8_9 2)))
 (let (($x942 (= cell_8_9 1)))
 (or $x942 $x304 (= cell_8_9 3) (= cell_8_9 4) (= cell_8_9 5) (= cell_8_9 6) (= cell_8_9 7) (= cell_8_9 8) (= cell_8_9 9)))))
(assert
 (let (($x4668 (= cell_9_9 2)))
 (let (($x9027 (= cell_9_9 1)))
 (or $x9027 $x4668 (= cell_9_9 3) (= cell_9_9 4) (= cell_9_9 5) (= cell_9_9 6) (= cell_9_9 7) (= cell_9_9 8) (= cell_9_9 9)))))
(assert
 (and (distinct cell_1_1 cell_1_2 cell_1_3 cell_1_4 cell_1_5 cell_1_6 cell_1_7 cell_1_8 cell_1_9) true))
(assert
 (and (distinct cell_2_1 cell_2_2 cell_2_3 cell_2_4 cell_2_5 cell_2_6 cell_2_7 cell_2_8 cell_2_9) true))
(assert
 (and (distinct cell_3_1 cell_3_2 cell_3_3 cell_3_4 cell_3_5 cell_3_6 cell_3_7 cell_3_8 cell_3_9) true))
(assert
 (and (distinct cell_4_1 cell_4_2 cell_4_3 cell_4_4 cell_4_5 cell_4_6 cell_4_7 cell_4_8 cell_4_9) true))
(assert
 (and (distinct cell_5_1 cell_5_2 cell_5_3 cell_5_4 cell_5_5 cell_5_6 cell_5_7 cell_5_8 cell_5_9) true))
(assert
 (and (distinct cell_6_1 cell_6_2 cell_6_3 cell_6_4 cell_6_5 cell_6_6 cell_6_7 cell_6_8 cell_6_9) true))
(assert
 (and (distinct cell_7_1 cell_7_2 cell_7_3 cell_7_4 cell_7_5 cell_7_6 cell_7_7 cell_7_8 cell_7_9) true))
(assert
 (and (distinct cell_8_1 cell_8_2 cell_8_3 cell_8_4 cell_8_5 cell_8_6 cell_8_7 cell_8_8 cell_8_9) true))
(assert
 (and (distinct cell_9_1 cell_9_2 cell_9_3 cell_9_4 cell_9_5 cell_9_6 cell_9_7 cell_9_8 cell_9_9) true))
(assert
 (and (distinct cell_1_1 cell_2_1 cell_3_1 cell_4_1 cell_5_1 cell_6_1 cell_7_1 cell_8_1 cell_9_1) true))
(assert
 (and (distinct cell_1_2 cell_2_2 cell_3_2 cell_4_2 cell_5_2 cell_6_2 cell_7_2 cell_8_2 cell_9_2) true))
(assert
 (and (distinct cell_1_3 cell_2_3 cell_3_3 cell_4_3 cell_5_3 cell_6_3 cell_7_3 cell_8_3 cell_9_3) true))
(assert
 (and (distinct cell_1_4 cell_2_4 cell_3_4 cell_4_4 cell_5_4 cell_6_4 cell_7_4 cell_8_4 cell_9_4) true))
(assert
 (and (distinct cell_1_5 cell_2_5 cell_3_5 cell_4_5 cell_5_5 cell_6_5 cell_7_5 cell_8_5 cell_9_5) true))
(assert
 (and (distinct cell_1_6 cell_2_6 cell_3_6 cell_4_6 cell_5_6 cell_6_6 cell_7_6 cell_8_6 cell_9_6) true))
(assert
 (and (distinct cell_1_7 cell_2_7 cell_3_7 cell_4_7 cell_5_7 cell_6_7 cell_7_7 cell_8_7 cell_9_7) true))
(assert
 (and (distinct cell_1_8 cell_2_8 cell_3_8 cell_4_8 cell_5_8 cell_6_8 cell_7_8 cell_8_8 cell_9_8) true))
(assert
 (and (distinct cell_1_9 cell_2_9 cell_3_9 cell_4_9 cell_5_9 cell_6_9 cell_7_9 cell_8_9 cell_9_9) true))
(assert
 (and (distinct cell_1_1 cell_1_2 cell_1_3 cell_2_1 cell_2_2 cell_2_3 cell_3_1 cell_3_2 cell_3_3) true))
(assert
 (and (distinct cell_1_4 cell_1_5 cell_1_6 cell_2_4 cell_2_5 cell_2_6 cell_3_4 cell_3_5 cell_3_6) true))
(assert
 (and (distinct cell_1_7 cell_1_8 cell_1_9 cell_2_7 cell_2_8 cell_2_9 cell_3_7 cell_3_8 cell_3_9) true))
(assert
 (and (distinct cell_4_1 cell_4_2 cell_4_3 cell_5_1 cell_5_2 cell_5_3 cell_6_1 cell_6_2 cell_6_3) true))
(assert
 (and (distinct cell_4_4 cell_4_5 cell_4_6 cell_5_4 cell_5_5 cell_5_6 cell_6_4 cell_6_5 cell_6_6) true))
(assert
 (and (distinct cell_4_7 cell_4_8 cell_4_9 cell_5_7 cell_5_8 cell_5_9 cell_6_7 cell_6_8 cell_6_9) true))
(assert
 (and (distinct cell_7_1 cell_7_2 cell_7_3 cell_8_1 cell_8_2 cell_8_3 cell_9_1 cell_9_2 cell_9_3) true))
(assert
 (and (distinct cell_7_4 cell_7_5 cell_7_6 cell_8_4 cell_8_5 cell_8_6 cell_9_4 cell_9_5 cell_9_6) true))
(assert
 (and (distinct cell_7_7 cell_7_8 cell_7_9 cell_8_7 cell_8_8 cell_8_9 cell_9_7 cell_9_8 cell_9_9) true))
(assert
 (let (($x1774 (and (distinct cell_5_9 cell_6_8 cell_7_7 cell_8_6) true)))
 (let (($x6154 (and (distinct cell_2_9 cell_3_8 cell_4_7 cell_5_6 cell_6_5 cell_7_4 cell_8_3 cell_9_2) true)))
 (let (($x4493 (and (distinct cell_1_8 cell_2_7 cell_3_6 cell_4_5 cell_5_4 cell_6_3 cell_7_2 cell_8_1) true)))
 (let (($x6924 (and (distinct cell_1_5 cell_2_4 cell_3_3 cell_4_2) true)))
 (let (($x7897 (and (distinct cell_5_1 cell_6_2 cell_7_3 cell_8_4) true)))
 (let (($x3317 (and (distinct cell_2_1 cell_3_2 cell_4_3 cell_5_4 cell_6_5 cell_7_6 cell_8_7 cell_9_8) true)))
 (let (($x550 (and (distinct cell_1_2 cell_2_3 cell_3_4 cell_4_5 cell_5_6 cell_6_7 cell_7_8 cell_8_9) true)))
 (let (($x1403 (and (distinct cell_1_5 cell_2_6 cell_3_7 cell_4_8) true)))
 (and $x1403 $x550 $x3317 $x7897 $x6924 $x4493 $x6154 $x1774))))))))))
(assert
 (and (distinct cell_7_6 2) true))
(check-sat)
